NAME: Li_29
COMMENT: 29154.34
TYPE: CVRP
DIMENSION: 961
CAPACITY: 2000
DISTANCE: 3000
EDGE_WEIGHT_TYPE: FUNCTION
EDGE_WEIGHT_FORMAT: EUC_2D
NODE_COORD_TYPE: TWOD_COORDS
NODE_COORD_SECTION
1 30.0000 0.0000
2 29.6307 4.6930
3 28.5317 9.2705
4 26.7302 13.6197
5 24.2705 17.6336
6 21.2132 21.2132
7 17.6336 24.2705
8 13.6197 26.7302
9 9.2705 28.5317
10 4.6930 29.6307
11 0.0000 30.0000
12 -4.6930 29.6307
13 -9.2705 28.5317
14 -13.6197 26.7302
15 -17.6336 24.2705
16 -21.2132 21.2132
17 -24.2705 17.6336
18 -26.7302 13.6197
19 -28.5317 9.2705
20 -29.6307 4.6930
21 -30.0000 0.0000
22 -29.6307 -4.6930
23 -28.5317 -9.2705
24 -26.7302 -13.6197
25 -24.2705 -17.6336
26 -21.2132 -21.2132
27 -17.6336 -24.2705
28 -13.6197 -26.7302
29 -9.2705 -28.5317
30 -4.6930 -29.6307
31 -0.0000 -30.0000
32 4.6930 -29.6307
33 9.2705 -28.5317
34 13.6197 -26.7302
35 17.6336 -24.2705
36 21.2132 -21.2132
37 24.2705 -17.6336
38 26.7302 -13.6197
39 28.5317 -9.2705
40 29.6307 -4.6930
41 60.0000 0.0000
42 59.2613 9.3861
43 57.0634 18.5410
44 53.4604 27.2394
45 48.5410 35.2671
46 42.4264 42.4264
47 35.2671 48.5410
48 27.2394 53.4604
49 18.5410 57.0634
50 9.3861 59.2613
51 0.0000 60.0000
52 -9.3861 59.2613
53 -18.5410 57.0634
54 -27.2394 53.4604
55 -35.2671 48.5410
56 -42.4264 42.4264
57 -48.5410 35.2671
58 -53.4604 27.2394
59 -57.0634 18.5410
60 -59.2613 9.3861
61 -60.0000 0.0000
62 -59.2613 -9.3861
63 -57.0634 -18.5410
64 -53.4604 -27.2394
65 -48.5410 -35.2671
66 -42.4264 -42.4264
67 -35.2671 -48.5410
68 -27.2394 -53.4604
69 -18.5410 -57.0634
70 -9.3861 -59.2613
71 -0.0000 -60.0000
72 9.3861 -59.2613
73 18.5410 -57.0634
74 27.2394 -53.4604
75 35.2671 -48.5410
76 42.4264 -42.4264
77 48.5410 -35.2671
78 53.4604 -27.2394
79 57.0634 -18.5410
80 59.2613 -9.3861
81 90.0000 0.0000
82 88.8920 14.0791
83 85.5951 27.8115
84 80.1906 40.8591
85 72.8115 52.9007
86 63.6396 63.6396
87 52.9007 72.8115
88 40.8591 80.1906
89 27.8115 85.5951
90 14.0791 88.8920
91 0.0000 90.0000
92 -14.0791 88.8920
93 -27.8115 85.5951
94 -40.8591 80.1906
95 -52.9007 72.8115
96 -63.6396 63.6396
97 -72.8115 52.9007
98 -80.1906 40.8591
99 -85.5951 27.8115
100 -88.8920 14.0791
101 -90.0000 0.0000
102 -88.8920 -14.0791
103 -85.5951 -27.8115
104 -80.1906 -40.8591
105 -72.8115 -52.9007
106 -63.6396 -63.6396
107 -52.9007 -72.8115
108 -40.8591 -80.1906
109 -27.8115 -85.5951
110 -14.0791 -88.8920
111 -0.0000 -90.0000
112 14.0791 -88.8920
113 27.8115 -85.5951
114 40.8591 -80.1906
115 52.9007 -72.8115
116 63.6396 -63.6396
117 72.8115 -52.9007
118 80.1906 -40.8591
119 85.5951 -27.8115
120 88.8920 -14.0791
121 120.0000 0.0000
122 118.5226 18.7721
123 114.1268 37.0820
124 106.9208 54.4789
125 97.0820 70.5342
126 84.8528 84.8528
127 70.5342 97.0820
128 54.4789 106.9208
129 37.0820 114.1268
130 18.7721 118.5226
131 0.0000 120.0000
132 -18.7721 118.5226
133 -37.0820 114.1268
134 -54.4789 106.9208
135 -70.5342 97.0820
136 -84.8528 84.8528
137 -97.0820 70.5342
138 -106.9208 54.4789
139 -114.1268 37.0820
140 -118.5226 18.7721
141 -120.0000 0.0000
142 -118.5226 -18.7721
143 -114.1268 -37.0820
144 -106.9208 -54.4789
145 -97.0820 -70.5342
146 -84.8528 -84.8528
147 -70.5342 -97.0820
148 -54.4789 -106.9208
149 -37.0820 -114.1268
150 -18.7721 -118.5226
151 -0.0000 -120.0000
152 18.7721 -118.5226
153 37.0820 -114.1268
154 54.4789 -106.9208
155 70.5342 -97.0820
156 84.8528 -84.8528
157 97.0820 -70.5342
158 106.9208 -54.4789
159 114.1268 -37.0820
160 118.5226 -18.7721
161 150.0000 0.0000
162 148.1533 23.4652
163 142.6585 46.3525
164 133.6510 68.0986
165 121.3525 88.1678
166 106.0660 106.0660
167 88.1678 121.3525
168 68.0986 133.6510
169 46.3525 142.6585
170 23.4652 148.1533
171 0.0000 150.0000
172 -23.4652 148.1533
173 -46.3525 142.6585
174 -68.0986 133.6510
175 -88.1678 121.3525
176 -106.0660 106.0660
177 -121.3525 88.1678
178 -133.6510 68.0986
179 -142.6585 46.3525
180 -148.1533 23.4652
181 -150.0000 0.0000
182 -148.1533 -23.4652
183 -142.6585 -46.3525
184 -133.6510 -68.0986
185 -121.3525 -88.1678
186 -106.0660 -106.0660
187 -88.1678 -121.3525
188 -68.0986 -133.6510
189 -46.3525 -142.6585
190 -23.4652 -148.1533
191 -0.0000 -150.0000
192 23.4652 -148.1533
193 46.3525 -142.6585
194 68.0986 -133.6510
195 88.1678 -121.3525
196 106.0660 -106.0660
197 121.3525 -88.1678
198 133.6510 -68.0986
199 142.6585 -46.3525
200 148.1533 -23.4652
201 180.0000 0.0000
202 177.7839 28.1582
203 171.1902 55.6231
204 160.3812 81.7183
205 145.6231 105.8013
206 127.2792 127.2792
207 105.8013 145.6231
208 81.7183 160.3812
209 55.6231 171.1902
210 28.1582 177.7839
211 0.0000 180.0000
212 -28.1582 177.7839
213 -55.6231 171.1902
214 -81.7183 160.3812
215 -105.8013 145.6231
216 -127.2792 127.2792
217 -145.6231 105.8013
218 -160.3812 81.7183
219 -171.1902 55.6231
220 -177.7839 28.1582
221 -180.0000 0.0000
222 -177.7839 -28.1582
223 -171.1902 -55.6231
224 -160.3812 -81.7183
225 -145.6231 -105.8013
226 -127.2792 -127.2792
227 -105.8013 -145.6231
228 -81.7183 -160.3812
229 -55.6231 -171.1902
230 -28.1582 -177.7839
231 -0.0000 -180.0000
232 28.1582 -177.7839
233 55.6231 -171.1902
234 81.7183 -160.3812
235 105.8013 -145.6231
236 127.2792 -127.2792
237 145.6231 -105.8013
238 160.3812 -81.7183
239 171.1902 -55.6231
240 177.7839 -28.1582
241 210.0000 0.0000
242 207.4146 32.8512
243 199.7219 64.8936
244 187.1114 95.3380
245 169.8936 123.4349
246 148.4924 148.4924
247 123.4349 169.8936
248 95.3380 187.1114
249 64.8936 199.7219
250 32.8512 207.4146
251 0.0000 210.0000
252 -32.8512 207.4146
253 -64.8936 199.7219
254 -95.3380 187.1114
255 -123.4349 169.8936
256 -148.4924 148.4924
257 -169.8936 123.4349
258 -187.1114 95.3380
259 -199.7219 64.8936
260 -207.4146 32.8512
261 -210.0000 0.0000
262 -207.4146 -32.8512
263 -199.7219 -64.8936
264 -187.1114 -95.3380
265 -169.8936 -123.4349
266 -148.4924 -148.4924
267 -123.4349 -169.8936
268 -95.3380 -187.1114
269 -64.8936 -199.7219
270 -32.8512 -207.4146
271 -0.0000 -210.0000
272 32.8512 -207.4146
273 64.8936 -199.7219
274 95.3380 -187.1114
275 123.4349 -169.8936
276 148.4924 -148.4924
277 169.8936 -123.4349
278 187.1114 -95.3380
279 199.7219 -64.8936
280 207.4146 -32.8512
281 240.0000 0.0000
282 237.0452 37.5443
283 228.2536 74.1641
284 213.8416 108.9577
285 194.1641 141.0685
286 169.7056 169.7056
287 141.0685 194.1641
288 108.9577 213.8416
289 74.1641 228.2536
290 37.5443 237.0452
291 0.0000 240.0000
292 -37.5443 237.0452
293 -74.1641 228.2536
294 -108.9577 213.8416
295 -141.0685 194.1641
296 -169.7056 169.7056
297 -194.1641 141.0685
298 -213.8416 108.9577
299 -228.2536 74.1641
300 -237.0452 37.5443
301 -240.0000 0.0000
302 -237.0452 -37.5443
303 -228.2536 -74.1641
304 -213.8416 -108.9577
305 -194.1641 -141.0685
306 -169.7056 -169.7056
307 -141.0685 -194.1641
308 -108.9577 -213.8416
309 -74.1641 -228.2536
310 -37.5443 -237.0452
311 -0.0000 -240.0000
312 37.5443 -237.0452
313 74.1641 -228.2536
314 108.9577 -213.8416
315 141.0685 -194.1641
316 169.7056 -169.7056
317 194.1641 -141.0685
318 213.8416 -108.9577
319 228.2536 -74.1641
320 237.0452 -37.5443
321 270.0000 0.0000
322 266.6759 42.2373
323 256.7853 83.4346
324 240.5718 122.5774
325 218.4346 158.7020
326 190.9188 190.9188
327 158.7020 218.4346
328 122.5774 240.5718
329 83.4346 256.7853
330 42.2373 266.6759
331 0.0000 270.0000
332 -42.2373 266.6759
333 -83.4346 256.7853
334 -122.5774 240.5718
335 -158.7020 218.4346
336 -190.9188 190.9188
337 -218.4346 158.7020
338 -240.5718 122.5774
339 -256.7853 83.4346
340 -266.6759 42.2373
341 -270.0000 0.0000
342 -266.6759 -42.2373
343 -256.7853 -83.4346
344 -240.5718 -122.5774
345 -218.4346 -158.7020
346 -190.9188 -190.9188
347 -158.7020 -218.4346
348 -122.5774 -240.5718
349 -83.4346 -256.7853
350 -42.2373 -266.6759
351 -0.0000 -270.0000
352 42.2373 -266.6759
353 83.4346 -256.7853
354 122.5774 -240.5718
355 158.7020 -218.4346
356 190.9188 -190.9188
357 218.4346 -158.7020
358 240.5718 -122.5774
359 256.7853 -83.4346
360 266.6759 -42.2373
361 300.0000 0.0000
362 296.3065 46.9303
363 285.3170 92.7051
364 267.3020 136.1971
365 242.7051 176.3356
366 212.1320 212.1320
367 176.3356 242.7051
368 136.1971 267.3020
369 92.7051 285.3170
370 46.9303 296.3065
371 0.0000 300.0000
372 -46.9303 296.3065
373 -92.7051 285.3170
374 -136.1971 267.3020
375 -176.3356 242.7051
376 -212.1320 212.1320
377 -242.7051 176.3356
378 -267.3020 136.1971
379 -285.3170 92.7051
380 -296.3065 46.9303
381 -300.0000 0.0000
382 -296.3065 -46.9303
383 -285.3170 -92.7051
384 -267.3020 -136.1971
385 -242.7051 -176.3356
386 -212.1320 -212.1320
387 -176.3356 -242.7051
388 -136.1971 -267.3020
389 -92.7051 -285.3170
390 -46.9303 -296.3065
391 -0.0000 -300.0000
392 46.9303 -296.3065
393 92.7051 -285.3170
394 136.1971 -267.3020
395 176.3356 -242.7051
396 212.1320 -212.1320
397 242.7051 -176.3356
398 267.3020 -136.1971
399 285.3170 -92.7051
400 296.3065 -46.9303
401 330.0000 0.0000
402 325.9372 51.6234
403 313.8487 101.9756
404 294.0322 149.8169
405 266.9756 193.9691
406 233.3452 233.3452
407 193.9691 266.9756
408 149.8169 294.0322
409 101.9756 313.8487
410 51.6234 325.9372
411 0.0000 330.0000
412 -51.6234 325.9372
413 -101.9756 313.8487
414 -149.8169 294.0322
415 -193.9691 266.9756
416 -233.3452 233.3452
417 -266.9756 193.9691
418 -294.0322 149.8169
419 -313.8487 101.9756
420 -325.9372 51.6234
421 -330.0000 0.0000
422 -325.9372 -51.6234
423 -313.8487 -101.9756
424 -294.0322 -149.8169
425 -266.9756 -193.9691
426 -233.3452 -233.3452
427 -193.9691 -266.9756
428 -149.8169 -294.0322
429 -101.9756 -313.8487
430 -51.6234 -325.9372
431 -0.0000 -330.0000
432 51.6234 -325.9372
433 101.9756 -313.8487
434 149.8169 -294.0322
435 193.9691 -266.9756
436 233.3452 -233.3452
437 266.9756 -193.9691
438 294.0322 -149.8169
439 313.8487 -101.9756
440 325.9372 -51.6234
441 360.0000 0.0000
442 355.5678 56.3164
443 342.3803 111.2461
444 320.7623 163.4366
445 291.2461 211.6027
446 254.5584 254.5584
447 211.6027 291.2461
448 163.4366 320.7623
449 111.2461 342.3803
450 56.3164 355.5678
451 0.0000 360.0000
452 -56.3164 355.5678
453 -111.2461 342.3803
454 -163.4366 320.7623
455 -211.6027 291.2461
456 -254.5584 254.5584
457 -291.2461 211.6027
458 -320.7623 163.4366
459 -342.3803 111.2461
460 -355.5678 56.3164
461 -360.0000 0.0000
462 -355.5678 -56.3164
463 -342.3803 -111.2461
464 -320.7623 -163.4366
465 -291.2461 -211.6027
466 -254.5584 -254.5584
467 -211.6027 -291.2461
468 -163.4366 -320.7623
469 -111.2461 -342.3803
470 -56.3164 -355.5678
471 -0.0000 -360.0000
472 56.3164 -355.5678
473 111.2461 -342.3803
474 163.4366 -320.7623
475 211.6027 -291.2461
476 254.5584 -254.5584
477 291.2461 -211.6027
478 320.7623 -163.4366
479 342.3803 -111.2461
480 355.5678 -56.3164
481 390.0000 0.0000
482 385.1985 61.0094
483 370.9120 120.5166
484 347.4925 177.0563
485 315.5166 229.2362
486 275.7716 275.7716
487 229.2362 315.5166
488 177.0563 347.4925
489 120.5166 370.9120
490 61.0094 385.1985
491 0.0000 390.0000
492 -61.0094 385.1985
493 -120.5166 370.9120
494 -177.0563 347.4925
495 -229.2362 315.5166
496 -275.7716 275.7716
497 -315.5166 229.2362
498 -347.4925 177.0563
499 -370.9120 120.5166
500 -385.1985 61.0094
501 -390.0000 0.0000
502 -385.1985 -61.0094
503 -370.9120 -120.5166
504 -347.4925 -177.0563
505 -315.5166 -229.2362
506 -275.7716 -275.7716
507 -229.2362 -315.5166
508 -177.0563 -347.4925
509 -120.5166 -370.9120
510 -61.0094 -385.1985
511 -0.0000 -390.0000
512 61.0094 -385.1985
513 120.5166 -370.9120
514 177.0563 -347.4925
515 229.2362 -315.5166
516 275.7716 -275.7716
517 315.5166 -229.2362
518 347.4925 -177.0563
519 370.9120 -120.5166
520 385.1985 -61.0094
521 420.0000 0.0000
522 414.8291 65.7025
523 399.4437 129.7871
524 374.2227 190.6760
525 339.7871 246.8698
526 296.9848 296.9848
527 246.8698 339.7871
528 190.6760 374.2227
529 129.7871 399.4437
530 65.7025 414.8291
531 0.0000 420.0000
532 -65.7025 414.8291
533 -129.7871 399.4437
534 -190.6760 374.2227
535 -246.8698 339.7871
536 -296.9848 296.9848
537 -339.7871 246.8698
538 -374.2227 190.6760
539 -399.4437 129.7871
540 -414.8291 65.7025
541 -420.0000 0.0000
542 -414.8291 -65.7025
543 -399.4437 -129.7871
544 -374.2227 -190.6760
545 -339.7871 -246.8698
546 -296.9848 -296.9848
547 -246.8698 -339.7871
548 -190.6760 -374.2227
549 -129.7871 -399.4437
550 -65.7025 -414.8291
551 -0.0000 -420.0000
552 65.7025 -414.8291
553 129.7871 -399.4437
554 190.6760 -374.2227
555 246.8698 -339.7871
556 296.9848 -296.9848
557 339.7871 -246.8698
558 374.2227 -190.6760
559 399.4437 -129.7871
560 414.8291 -65.7025
561 450.0000 0.0000
562 444.4598 70.3955
563 427.9754 139.0576
564 400.9529 204.2957
565 364.0576 264.5034
566 318.1981 318.1981
567 264.5034 364.0576
568 204.2957 400.9529
569 139.0576 427.9754
570 70.3955 444.4598
571 0.0000 450.0000
572 -70.3955 444.4598
573 -139.0576 427.9754
574 -204.2957 400.9529
575 -264.5034 364.0576
576 -318.1981 318.1981
577 -364.0576 264.5034
578 -400.9529 204.2957
579 -427.9754 139.0576
580 -444.4598 70.3955
581 -450.0000 0.0000
582 -444.4598 -70.3955
583 -427.9754 -139.0576
584 -400.9529 -204.2957
585 -364.0576 -264.5034
586 -318.1981 -318.1981
587 -264.5034 -364.0576
588 -204.2957 -400.9529
589 -139.0576 -427.9754
590 -70.3955 -444.4598
591 -0.0000 -450.0000
592 70.3955 -444.4598
593 139.0576 -427.9754
594 204.2957 -400.9529
595 264.5034 -364.0576
596 318.1981 -318.1981
597 364.0576 -264.5034
598 400.9529 -204.2957
599 427.9754 -139.0576
600 444.4598 -70.3955
601 480.0000 0.0000
602 474.0904 75.0885
603 456.5071 148.3282
604 427.6831 217.9154
605 388.3282 282.1369
606 339.4113 339.4113
607 282.1369 388.3282
608 217.9154 427.6831
609 148.3282 456.5071
610 75.0885 474.0904
611 0.0000 480.0000
612 -75.0885 474.0904
613 -148.3282 456.5071
614 -217.9154 427.6831
615 -282.1369 388.3282
616 -339.4113 339.4113
617 -388.3282 282.1369
618 -427.6831 217.9154
619 -456.5071 148.3282
620 -474.0904 75.0885
621 -480.0000 0.0000
622 -474.0904 -75.0885
623 -456.5071 -148.3282
624 -427.6831 -217.9154
625 -388.3282 -282.1369
626 -339.4113 -339.4113
627 -282.1369 -388.3282
628 -217.9154 -427.6831
629 -148.3282 -456.5071
630 -75.0885 -474.0904
631 -0.0000 -480.0000
632 75.0885 -474.0904
633 148.3282 -456.5071
634 217.9154 -427.6831
635 282.1369 -388.3282
636 339.4113 -339.4113
637 388.3282 -282.1369
638 427.6831 -217.9154
639 456.5071 -148.3282
640 474.0904 -75.0885
641 510.0000 0.0000
642 503.7211 79.7816
643 485.0388 157.5987
644 454.4133 231.5352
645 412.5987 299.7705
646 360.6245 360.6245
647 299.7705 412.5987
648 231.5352 454.4133
649 157.5987 485.0388
650 79.7816 503.7211
651 0.0000 510.0000
652 -79.7816 503.7211
653 -157.5987 485.0388
654 -231.5352 454.4133
655 -299.7705 412.5987
656 -360.6245 360.6245
657 -412.5987 299.7705
658 -454.4133 231.5352
659 -485.0388 157.5987
660 -503.7211 79.7816
661 -510.0000 0.0000
662 -503.7211 -79.7816
663 -485.0388 -157.5987
664 -454.4133 -231.5352
665 -412.5987 -299.7705
666 -360.6245 -360.6245
667 -299.7705 -412.5987
668 -231.5352 -454.4133
669 -157.5987 -485.0388
670 -79.7816 -503.7211
671 -0.0000 -510.0000
672 79.7816 -503.7211
673 157.5987 -485.0388
674 231.5352 -454.4133
675 299.7705 -412.5987
676 360.6245 -360.6245
677 412.5987 -299.7705
678 454.4133 -231.5352
679 485.0388 -157.5987
680 503.7211 -79.7816
681 540.0000 0.0000
682 533.3517 84.4746
683 513.5705 166.8692
684 481.1435 245.1549
685 436.8692 317.4040
686 381.8377 381.8377
687 317.4040 436.8692
688 245.1549 481.1435
689 166.8692 513.5705
690 84.4746 533.3517
691 0.0000 540.0000
692 -84.4746 533.3517
693 -166.8692 513.5705
694 -245.1549 481.1435
695 -317.4040 436.8692
696 -381.8377 381.8377
697 -436.8692 317.4040
698 -481.1435 245.1549
699 -513.5705 166.8692
700 -533.3517 84.4746
701 -540.0000 0.0000
702 -533.3517 -84.4746
703 -513.5705 -166.8692
704 -481.1435 -245.1549
705 -436.8692 -317.4040
706 -381.8377 -381.8377
707 -317.4040 -436.8692
708 -245.1549 -481.1435
709 -166.8692 -513.5705
710 -84.4746 -533.3517
711 -0.0000 -540.0000
712 84.4746 -533.3517
713 166.8692 -513.5705
714 245.1549 -481.1435
715 317.4040 -436.8692
716 381.8377 -381.8377
717 436.8692 -317.4040
718 481.1435 -245.1549
719 513.5705 -166.8692
720 533.3517 -84.4746
721 570.0000 0.0000
722 562.9824 89.1676
723 542.1022 176.1397
724 507.8737 258.7746
725 461.1397 335.0376
726 403.0509 403.0509
727 335.0376 461.1397
728 258.7746 507.8737
729 176.1397 542.1022
730 89.1676 562.9824
731 0.0000 570.0000
732 -89.1676 562.9824
733 -176.1397 542.1022
734 -258.7746 507.8737
735 -335.0376 461.1397
736 -403.0509 403.0509
737 -461.1397 335.0376
738 -507.8737 258.7746
739 -542.1022 176.1397
740 -562.9824 89.1676
741 -570.0000 0.0000
742 -562.9824 -89.1676
743 -542.1022 -176.1397
744 -507.8737 -258.7746
745 -461.1397 -335.0376
746 -403.0509 -403.0509
747 -335.0376 -461.1397
748 -258.7746 -507.8737
749 -176.1397 -542.1022
750 -89.1676 -562.9824
751 -0.0000 -570.0000
752 89.1676 -562.9824
753 176.1397 -542.1022
754 258.7746 -507.8737
755 335.0376 -461.1397
756 403.0509 -403.0509
757 461.1397 -335.0376
758 507.8737 -258.7746
759 542.1022 -176.1397
760 562.9824 -89.1676
761 600.0000 0.0000
762 592.6130 93.8607
763 570.6339 185.4102
764 534.6039 272.3943
765 485.4102 352.6712
766 424.2641 424.2641
767 352.6712 485.4102
768 272.3943 534.6039
769 185.4102 570.6339
770 93.8607 592.6130
771 0.0000 600.0000
772 -93.8607 592.6130
773 -185.4102 570.6339
774 -272.3943 534.6039
775 -352.6712 485.4102
776 -424.2641 424.2641
777 -485.4102 352.6712
778 -534.6039 272.3943
779 -570.6339 185.4102
780 -592.6130 93.8607
781 -600.0000 0.0000
782 -592.6130 -93.8607
783 -570.6339 -185.4102
784 -534.6039 -272.3943
785 -485.4102 -352.6712
786 -424.2641 -424.2641
787 -352.6712 -485.4102
788 -272.3943 -534.6039
789 -185.4102 -570.6339
790 -93.8607 -592.6130
791 -0.0000 -600.0000
792 93.8607 -592.6130
793 185.4102 -570.6339
794 272.3943 -534.6039
795 352.6712 -485.4102
796 424.2641 -424.2641
797 485.4102 -352.6712
798 534.6039 -272.3943
799 570.6339 -185.4102
800 592.6130 -93.8607
801 630.0000 0.0000
802 622.2437 98.5537
803 599.1656 194.6807
804 561.3341 286.0140
805 509.6807 370.3047
806 445.4773 445.4773
807 370.3047 509.6807
808 286.0140 561.3341
809 194.6807 599.1656
810 98.5537 622.2437
811 0.0000 630.0000
812 -98.5537 622.2437
813 -194.6807 599.1656
814 -286.0140 561.3341
815 -370.3047 509.6807
816 -445.4773 445.4773
817 -509.6807 370.3047
818 -561.3341 286.0140
819 -599.1656 194.6807
820 -622.2437 98.5537
821 -630.0000 0.0000
822 -622.2437 -98.5537
823 -599.1656 -194.6807
824 -561.3341 -286.0140
825 -509.6807 -370.3047
826 -445.4773 -445.4773
827 -370.3047 -509.6807
828 -286.0140 -561.3341
829 -194.6807 -599.1656
830 -98.5537 -622.2437
831 -0.0000 -630.0000
832 98.5537 -622.2437
833 194.6807 -599.1656
834 286.0140 -561.3341
835 370.3047 -509.6807
836 445.4773 -445.4773
837 509.6807 -370.3047
838 561.3341 -286.0140
839 599.1656 -194.6807
840 622.2437 -98.5537
841 660.0000 0.0000
842 651.8743 103.2467
843 627.6973 203.9512
844 588.0643 299.6337
845 533.9512 387.9383
846 466.6905 466.6905
847 387.9383 533.9512
848 299.6337 588.0643
849 203.9512 627.6973
850 103.2467 651.8743
851 0.0000 660.0000
852 -103.2467 651.8743
853 -203.9512 627.6973
854 -299.6337 588.0643
855 -387.9383 533.9512
856 -466.6905 466.6905
857 -533.9512 387.9383
858 -588.0643 299.6337
859 -627.6973 203.9512
860 -651.8743 103.2467
861 -660.0000 0.0000
862 -651.8743 -103.2467
863 -627.6973 -203.9512
864 -588.0643 -299.6337
865 -533.9512 -387.9383
866 -466.6905 -466.6905
867 -387.9383 -533.9512
868 -299.6337 -588.0643
869 -203.9512 -627.6973
870 -103.2467 -651.8743
871 -0.0000 -660.0000
872 103.2467 -651.8743
873 203.9512 -627.6973
874 299.6337 -588.0643
875 387.9383 -533.9512
876 466.6905 -466.6905
877 533.9512 -387.9383
878 588.0643 -299.6337
879 627.6973 -203.9512
880 651.8743 -103.2467
881 690.0000 0.0000
882 681.5050 107.9398
883 656.2290 213.2217
884 614.7945 313.2534
885 558.2217 405.5718
886 487.9037 487.9037
887 405.5718 558.2217
888 313.2534 614.7945
889 213.2217 656.2290
890 107.9398 681.5050
891 0.0000 690.0000
892 -107.9398 681.5050
893 -213.2217 656.2290
894 -313.2534 614.7945
895 -405.5718 558.2217
896 -487.9037 487.9037
897 -558.2217 405.5718
898 -614.7945 313.2534
899 -656.2290 213.2217
900 -681.5050 107.9398
901 -690.0000 0.0000
902 -681.5050 -107.9398
903 -656.2290 -213.2217
904 -614.7945 -313.2534
905 -558.2217 -405.5718
906 -487.9037 -487.9037
907 -405.5718 -558.2217
908 -313.2534 -614.7945
909 -213.2217 -656.2290
910 -107.9398 -681.5050
911 -0.0000 -690.0000
912 107.9398 -681.5050
913 213.2217 -656.2290
914 313.2534 -614.7945
915 405.5718 -558.2217
916 487.9037 -487.9037
917 558.2217 -405.5718
918 614.7945 -313.2534
919 656.2290 -213.2217
920 681.5050 -107.9398
921 720.0000 0.0000
922 711.1356 112.6328
923 684.7607 222.4922
924 641.5247 326.8732
925 582.4922 423.2054
926 509.1169 509.1169
927 423.2054 582.4922
928 326.8732 641.5247
929 222.4922 684.7607
930 112.6328 711.1356
931 0.0000 720.0000
932 -112.6328 711.1356
933 -222.4922 684.7607
934 -326.8732 641.5247
935 -423.2054 582.4922
936 -509.1169 509.1169
937 -582.4922 423.2054
938 -641.5247 326.8732
939 -684.7607 222.4922
940 -711.1356 112.6328
941 -720.0000 0.0000
942 -711.1356 -112.6328
943 -684.7607 -222.4922
944 -641.5247 -326.8732
945 -582.4922 -423.2054
946 -509.1169 -509.1169
947 -423.2054 -582.4922
948 -326.8732 -641.5247
949 -222.4922 -684.7607
950 -112.6328 -711.1356
951 -0.0000 -720.0000
952 112.6328 -711.1356
953 222.4922 -684.7607
954 326.8732 -641.5247
955 423.2054 -582.4922
956 509.1169 -509.1169
957 582.4922 -423.2054
958 641.5247 -326.8732
959 684.7607 -222.4922
960 711.1356 -112.6328
DEMAND_SECTION
1 10
2 30
3 30
4 10
5 10
6 30
7 30
8 10
9 10
10 30
11 30
12 10
13 10
14 30
15 30
16 10
17 10
18 30
19 30
20 10
21 10
22 30
23 30
24 10
25 10
26 30
27 30
28 10
29 10
30 30
31 30
32 10
33 10
34 30
35 30
36 10
37 10
38 30
39 30
40 10
41 10
42 30
43 30
44 10
45 10
46 30
47 30
48 10
49 10
50 30
51 30
52 10
53 10
54 30
55 30
56 10
57 10
58 30
59 30
60 10
61 10
62 30
63 30
64 10
65 10
66 30
67 30
68 10
69 10
70 30
71 30
72 10
73 10
74 30
75 30
76 10
77 10
78 30
79 30
80 10
81 10
82 30
83 30
84 10
85 10
86 30
87 30
88 10
89 10
90 30
91 30
92 10
93 10
94 30
95 30
96 10
97 10
98 30
99 30
100 10
101 10
102 30
103 30
104 10
105 10
106 30
107 30
108 10
109 10
110 30
111 30
112 10
113 10
114 30
115 30
116 10
117 10
118 30
119 30
120 10
121 10
122 30
123 30
124 10
125 10
126 30
127 30
128 10
129 10
130 30
131 30
132 10
133 10
134 30
135 30
136 10
137 10
138 30
139 30
140 10
141 10
142 30
143 30
144 10
145 10
146 30
147 30
148 10
149 10
150 30
151 30
152 10
153 10
154 30
155 30
156 10
157 10
158 30
159 30
160 10
161 10
162 30
163 30
164 10
165 10
166 30
167 30
168 10
169 10
170 30
171 30
172 10
173 10
174 30
175 30
176 10
177 10
178 30
179 30
180 10
181 10
182 30
183 30
184 10
185 10
186 30
187 30
188 10
189 10
190 30
191 30
192 10
193 10
194 30
195 30
196 10
197 10
198 30
199 30
200 10
201 10
202 30
203 30
204 10
205 10
206 30
207 30
208 10
209 10
210 30
211 30
212 10
213 10
214 30
215 30
216 10
217 10
218 30
219 30
220 10
221 10
222 30
223 30
224 10
225 10
226 30
227 30
228 10
229 10
230 30
231 30
232 10
233 10
234 30
235 30
236 10
237 10
238 30
239 30
240 10
241 10
242 30
243 30
244 10
245 10
246 30
247 30
248 10
249 10
250 30
251 30
252 10
253 10
254 30
255 30
256 10
257 10
258 30
259 30
260 10
261 10
262 30
263 30
264 10
265 10
266 30
267 30
268 10
269 10
270 30
271 30
272 10
273 10
274 30
275 30
276 10
277 10
278 30
279 30
280 10
281 10
282 30
283 30
284 10
285 10
286 30
287 30
288 10
289 10
290 30
291 30
292 10
293 10
294 30
295 30
296 10
297 10
298 30
299 30
300 10
301 10
302 30
303 30
304 10
305 10
306 30
307 30
308 10
309 10
310 30
311 30
312 10
313 10
314 30
315 30
316 10
317 10
318 30
319 30
320 10
321 10
322 30
323 30
324 10
325 10
326 30
327 30
328 10
329 10
330 30
331 30
332 10
333 10
334 30
335 30
336 10
337 10
338 30
339 30
340 10
341 10
342 30
343 30
344 10
345 10
346 30
347 30
348 10
349 10
350 30
351 30
352 10
353 10
354 30
355 30
356 10
357 10
358 30
359 30
360 10
361 10
362 30
363 30
364 10
365 10
366 30
367 30
368 10
369 10
370 30
371 30
372 10
373 10
374 30
375 30
376 10
377 10
378 30
379 30
380 10
381 10
382 30
383 30
384 10
385 10
386 30
387 30
388 10
389 10
390 30
391 30
392 10
393 10
394 30
395 30
396 10
397 10
398 30
399 30
400 10
401 10
402 30
403 30
404 10
405 10
406 30
407 30
408 10
409 10
410 30
411 30
412 10
413 10
414 30
415 30
416 10
417 10
418 30
419 30
420 10
421 10
422 30
423 30
424 10
425 10
426 30
427 30
428 10
429 10
430 30
431 30
432 10
433 10
434 30
435 30
436 10
437 10
438 30
439 30
440 10
441 10
442 30
443 30
444 10
445 10
446 30
447 30
448 10
449 10
450 30
451 30
452 10
453 10
454 30
455 30
456 10
457 10
458 30
459 30
460 10
461 10
462 30
463 30
464 10
465 10
466 30
467 30
468 10
469 10
470 30
471 30
472 10
473 10
474 30
475 30
476 10
477 10
478 30
479 30
480 10
481 10
482 30
483 30
484 10
485 10
486 30
487 30
488 10
489 10
490 30
491 30
492 10
493 10
494 30
495 30
496 10
497 10
498 30
499 30
500 10
501 10
502 30
503 30
504 10
505 10
506 30
507 30
508 10
509 10
510 30
511 30
512 10
513 10
514 30
515 30
516 10
517 10
518 30
519 30
520 10
521 10
522 30
523 30
524 10
525 10
526 30
527 30
528 10
529 10
530 30
531 30
532 10
533 10
534 30
535 30
536 10
537 10
538 30
539 30
540 10
541 10
542 30
543 30
544 10
545 10
546 30
547 30
548 10
549 10
550 30
551 30
552 10
553 10
554 30
555 30
556 10
557 10
558 30
559 30
560 10
561 10
562 30
563 30
564 10
565 10
566 30
567 30
568 10
569 10
570 30
571 30
572 10
573 10
574 30
575 30
576 10
577 10
578 30
579 30
580 10
581 10
582 30
583 30
584 10
585 10
586 30
587 30
588 10
589 10
590 30
591 30
592 10
593 10
594 30
595 30
596 10
597 10
598 30
599 30
600 10
601 10
602 30
603 30
604 10
605 10
606 30
607 30
608 10
609 10
610 30
611 30
612 10
613 10
614 30
615 30
616 10
617 10
618 30
619 30
620 10
621 10
622 30
623 30
624 10
625 10
626 30
627 30
628 10
629 10
630 30
631 30
632 10
633 10
634 30
635 30
636 10
637 10
638 30
639 30
640 10
641 10
642 30
643 30
644 10
645 10
646 30
647 30
648 10
649 10
650 30
651 30
652 10
653 10
654 30
655 30
656 10
657 10
658 30
659 30
660 10
661 10
662 30
663 30
664 10
665 10
666 30
667 30
668 10
669 10
670 30
671 30
672 10
673 10
674 30
675 30
676 10
677 10
678 30
679 30
680 10
681 10
682 30
683 30
684 10
685 10
686 30
687 30
688 10
689 10
690 30
691 30
692 10
693 10
694 30
695 30
696 10
697 10
698 30
699 30
700 10
701 10
702 30
703 30
704 10
705 10
706 30
707 30
708 10
709 10
710 30
711 30
712 10
713 10
714 30
715 30
716 10
717 10
718 30
719 30
720 10
721 10
722 30
723 30
724 10
725 10
726 30
727 30
728 10
729 10
730 30
731 30
732 10
733 10
734 30
735 30
736 10
737 10
738 30
739 30
740 10
741 10
742 30
743 30
744 10
745 10
746 30
747 30
748 10
749 10
750 30
751 30
752 10
753 10
754 30
755 30
756 10
757 10
758 30
759 30
760 10
761 10
762 30
763 30
764 10
765 10
766 30
767 30
768 10
769 10
770 30
771 30
772 10
773 10
774 30
775 30
776 10
777 10
778 30
779 30
780 10
781 10
782 30
783 30
784 10
785 10
786 30
787 30
788 10
789 10
790 30
791 30
792 10
793 10
794 30
795 30
796 10
797 10
798 30
799 30
800 10
801 10
802 30
803 30
804 10
805 10
806 30
807 30
808 10
809 10
810 30
811 30
812 10
813 10
814 30
815 30
816 10
817 10
818 30
819 30
820 10
821 10
822 30
823 30
824 10
825 10
826 30
827 30
828 10
829 10
830 30
831 30
832 10
833 10
834 30
835 30
836 10
837 10
838 30
839 30
840 10
841 10
842 30
843 30
844 10
845 10
846 30
847 30
848 10
849 10
850 30
851 30
852 10
853 10
854 30
855 30
856 10
857 10
858 30
859 30
860 10
861 10
862 30
863 30
864 10
865 10
866 30
867 30
868 10
869 10
870 30
871 30
872 10
873 10
874 30
875 30
876 10
877 10
878 30
879 30
880 10
881 10
882 30
883 30
884 10
885 10
886 30
887 30
888 10
889 10
890 30
891 30
892 10
893 10
894 30
895 30
896 10
897 10
898 30
899 30
900 10
901 10
902 30
903 30
904 10
905 10
906 30
907 30
908 10
909 10
910 30
911 30
912 10
913 10
914 30
915 30
916 10
917 10
918 30
919 30
920 10
921 10
922 30
923 30
924 10
925 10
926 30
927 30
928 10
929 10
930 30
931 30
932 10
933 10
934 30
935 30
936 10
937 10
938 30
939 30
940 10
941 10
942 30
943 30
944 10
945 10
946 30
947 30
948 10
949 10
950 30
951 30
952 10
953 10
954 30
955 30
956 10
957 10
958 30
959 30
960 10
DEPOT_SECTION
0.0000 0.0000
-1
EOF
